Route 1: 0 39 94 52 99 7 80 37 40 73 14 55 0
Route 2: 0 49 98 51 79 21 85 84 26 59 48 3 86 0
Route 3: 0 41 53 83 44 61 33 30 64 16 0
Route 4: 0 15 47 90 95 100 29 0
Route 5: 0 81 6 2 9 50 75 88 82 8 54 13 93 0
Route 6: 0 31 23 71 65 77 70 62 97 87 20 0
Route 7: 0 4 32 92 35 38 43 36 74 5 10 42 0
Route 8: 0 69 67 27 76 96 34 45 17 25 89 18 12 0
Route 9: 0 22 78 56 28 58 57 0
Route 10: 0 19 46 60 68 63 91 11 24 66 72 1 0
